32 40
2 2 3
8 6 1
2 10 1
3 1 1
4 8 1
10 3 1
9 1 2
5 1 1
3 6 1
1 1 1
2 4 1
2 9 1
5 9 3
7 4 2
4 3 1
7 9 1
1 4 2
8 9 1
3 4 1
5 6 1
4 10 1
2 1 1
1 7 2
1 3 1
3 8 1
4 4 1
2 7 1
9 6 1
8 2 1
6 10 1
9 3 1
8 3 1
30 30 
30 30 
30 30 
30 30 
30 30 
30 30 
30 30 
30 30 
30 30 
30 30 
30 30 
30 30 
30 30 
30 30 
30 30 
30 30 
30 30 
30 30 
30 30 
30 30 
30 30 
30 30 
30 30 
30 30 
30 30 
30 30 
30 30 
30 30 
30 30 
30 30 
30 30 
30 30 
30 30 
30 30 
30 30 
30 30 
30 30 
30 30 
30 30 
30 30 
